TOUR_SECTION
1
135
72
15
138
104
91
112
29
158
44
129
110
2
84
118
95
147
28
10
59
17
30
116
33
162
70
189
187
98
124
194
165
45
65
24
109
103
144
145
74
57
154
192
9
170
38
67
86
201
106
80
120
75
63
117
195
89
179
155
137
41
16
54
136
139
113
23
78
7
182
82
50
36
149
150
177
121
159
119
128
172
47
83
56
92
126
173
27
146
64
76
62
79
6
200
131
142
174
115
43
69
81
52
171
184
108
18
151
157
143
51
85
42
87
20
160
34
188
102
31
197
125
133
90
11
196
14
93
132
37
180
190
19
153
5
49
35
60
156
105
183
175
163
168
66
100
3
61
193
12
40
111
178
13
32
39
164
152
26
186
96
4
134
58
73
176
140
22
21
25
148
130
169
127
166
185
191
53
199
167
101
77
107
114
71
181
68
99
122
46
94
141
97
48
55
198
123
8
161
88
-1
EOF